unknown
(model
; cardinality of BoundSet is 2
(declare-sort BoundSet 0)
; rep: @uc_BoundSet_0
; rep: @uc_BoundSet_1
; cardinality of UnboundSet is 1
(declare-sort UnboundSet 0)
(declare-fun groundTerm_3 () UnboundSet)
(define-fun IsPersonallyAttacked ((BOUND_VARIABLE_488 BoundSet)) Bool true)
(define-fun ShiftsAttentionFrom ((BOUND_VARIABLE_488 BoundSet)) Bool true)
(define-fun DivertsAttention ((BOUND_VARIABLE_488 BoundSet)) Bool false)
)
unsat
(error "Cannot get model unless immediately preceded by SAT/NOT_ENTAILED or UNKNOWN response.")
